db/data/27603136110906263759786256891794720696.z3.out
sat
-------------------
8.439182378
